
Gurobi 9.5.0 (win64) logging started Mon Jun  6 19:20:27 2022

Set parameter LogFile to value "../results/logs/log_soc-dolphins_3_1_2022_06_06_19_20.log"
Set parameter LazyConstraints to value 1
Gurobi Optimizer version 9.5.0 build v9.5.0rc5 (win64)
Thread count: 6 physical cores, 12 logical processors, using up to 12 threads
Optimize a model with 5324 rows, 186 columns and 16540 nonzeros
Model fingerprint: 0x7d83fdb6
Variable types: 0 continuous, 186 integer (186 binary)
Coefficient statistics:
  Matrix range     [1e+00, 3e+00]
  Objective range  [1e+00, 1e+00]
  Bounds range     [1e+00, 1e+00]
  RHS range        [1e+00, 1e+00]
Found heuristic solution: objective -0.0000000
Presolve removed 5138 rows and 15 columns
Presolve time: 0.05s
Presolved: 186 rows, 171 columns, 4057 nonzeros
Variable types: 0 continuous, 171 integer (171 binary)

Root relaxation: objective 3.400000e+01, 55 iterations, 0.00 seconds (0.00 work units)

    Nodes    |    Current Node    |     Objective Bounds      |     Work
 Expl Unexpl |  Obj  Depth IntInf | Incumbent    BestBd   Gap | It/Node Time

     0     0   34.00000    0    2   -0.00000   34.00000      -     -    0s
     0     0   31.13333    0   14   -0.00000   31.13333      -     -    0s
H    0     0                       5.0000000   31.13333   523%     -    0s
     0     0   29.83333    0   15    5.00000   29.83333   497%     -    0s
     0     0   28.50000    0   13    5.00000   28.50000   470%     -    0s
     0     0   24.38889    0   20    5.00000   24.38889   388%     -    0s
H    0     0                      22.0000000   24.38889  10.9%     -    0s
     0     0   23.37500    0   14   22.00000   23.37500  6.25%     -    0s
     0     0   23.33333    0   14   22.00000   23.33333  6.06%     -    0s
     0     0     cutoff    0        22.00000   22.00000  0.00%     -    0s

Cutting planes:
  Gomory: 2
  Cover: 3
  Clique: 17
  MIR: 4
  StrongCG: 1
  GUB cover: 1
  Zero half: 3
  RLT: 3
  Lazy constraints: 410

Explored 1 nodes (191 simplex iterations) in 0.20 seconds (0.08 work units)
Thread count was 12 (of 12 available processors)

Solution count 3: 22 5 -0 

Optimal solution found (tolerance 0.00e+00)
Best objective 2.200000000000e+01, best bound 2.200000000000e+01, gap 0.0000%

User-callback calls 310, time in user-callback 0.06 sec

Gurobi 9.5.0 (win64) logging started Mon Jun  6 19:20:47 2022

Set parameter LogFile to value "../results/logs/log_soc-dolphins_3_1_2022_06_06_19_20.log"
Set parameter LazyConstraints to value 1
Gurobi Optimizer version 9.5.0 build v9.5.0rc5 (win64)
Thread count: 6 physical cores, 12 logical processors, using up to 12 threads
Optimize a model with 315 rows, 45 columns and 992 nonzeros
Model fingerprint: 0x1360c4e5
Variable types: 0 continuous, 45 integer (45 binary)
Coefficient statistics:
  Matrix range     [1e+00, 3e+00]
  Objective range  [1e+00, 1e+00]
  Bounds range     [1e+00, 1e+00]
  RHS range        [1e+00, 1e+00]
Found heuristic solution: objective -0.0000000
Presolve removed 314 rows and 30 columns
Presolve time: 0.00s
Presolved: 1 rows, 15 columns, 15 nonzeros
Variable types: 0 continuous, 15 integer (15 binary)

Explored 0 nodes (0 simplex iterations) in 0.01 seconds (0.00 work units)
Thread count was 12 (of 12 available processors)

Solution count 1: -0 
No other solutions better than -0

Optimal solution found (tolerance 0.00e+00)
Best objective -0.000000000000e+00, best bound -0.000000000000e+00, gap 0.0000%

User-callback calls 267, time in user-callback 0.00 sec

Gurobi 9.5.0 (win64) logging started Mon Jun  6 19:20:57 2022

Set parameter LogFile to value "../results/logs/log_soc-dolphins_3_1_2022_06_06_19_20.log"
Set parameter LazyConstraints to value 1
Gurobi Optimizer version 9.5.0 build v9.5.0rc5 (win64)
Thread count: 6 physical cores, 12 logical processors, using up to 12 threads
Optimize a model with 315 rows, 45 columns and 992 nonzeros
Model fingerprint: 0x1360c4e5
Variable types: 0 continuous, 45 integer (45 binary)
Coefficient statistics:
  Matrix range     [1e+00, 3e+00]
  Objective range  [1e+00, 1e+00]
  Bounds range     [1e+00, 1e+00]
  RHS range        [1e+00, 1e+00]
Found heuristic solution: objective -0.0000000
Presolve removed 314 rows and 30 columns
Presolve time: 0.00s
Presolved: 1 rows, 15 columns, 15 nonzeros
Variable types: 0 continuous, 15 integer (15 binary)

Explored 0 nodes (0 simplex iterations) in 0.00 seconds (0.00 work units)
Thread count was 12 (of 12 available processors)

Solution count 1: -0 
No other solutions better than -0

Optimal solution found (tolerance 0.00e+00)
Best objective -0.000000000000e+00, best bound -0.000000000000e+00, gap 0.0000%

User-callback calls 267, time in user-callback 0.00 sec
